benchmarks_CP/INST_64x64/40/inst64x64_40_96.dzn
S=8;
start=[|
2,	27,	19,	32,	47,	-1,	63,	58,	54,	-1,	-1,	-1,	10,	48,	-1,	-1,	59,	31,	-1,	-1,	14,	-1,	-1,	39,	-1,	61,	-1,	-1,	-1,	-1,	-1,	26,	13,	-1,	-1,	17,	-1,	40,	41,	60,	38,	18,	56,	3,	-1,	-1,	-1,	-1,	15,	5,	-1,	25,	-1,	11,	-1,	57,	-1,	-1,	-1,	22,	-1,	53,	21,	29|
-1,	-1,	-1,	23,	-1,	-1,	-1,	-1,	-1,	8,	-1,	22,	-1,	41,	31,	-1,	-1,	42,	-1,	12,	40,	-1,	20,	-1,	34,	-1,	-1,	-1,	10,	-1,	3,	-1,	-1,	-1,	-1,	56,	-1,	1,	48,	-1,	29,	-1,	-1,	64,	9,	-1,	57,	-1,	18,	-1,	-1,	6,	43,	53,	-1,	-1,	-1,	-1,	-1,	-1,	-1,	-1,	-1,	-1|
-1,	-1,	-1,	-1,	-1,	48,	-1,	-1,	53,	-1,	58,	-1,	-1,	14,	-1,	46,	-1,	-1,	29,	57,	23,	13,	27,	43,	54,	-1,	31,	9,	-1,	44,	20,	-1,	52,	-1,	-1,	-1,	-1,	-1,	28,	-1,	-1,	-1,	59,	-1,	-1,	-1,	45,	-1,	-1,	-1,	34,	-1,	24,	35,	-1,	7,	-1,	-1,	-1,	-1,	-1,	-1,	47,	-1|
55,	-1,	-1,	45,	37,	46,	-1,	-1,	-1,	-1,	-1,	-1,	5,	-1,	-1,	-1,	-1,	6,	-1,	-1,	-1,	-1,	-1,	56,	-1,	-1,	-1,	-1,	-1,	-1,	53,	-1,	20,	64,	-1,	-1,	7,	-1,	42,	2,	34,	40,	43,	11,	-1,	-1,	-1,	-1,	13,	-1,	-1,	-1,	51,	-1,	26,	-1,	38,	-1,	-1,	-1,	-1,	27,	4,	59|
-1,	25,	-1,	34,	15,	36,	-1,	-1,	-1,	-1,	-1,	62,	-1,	2,	-1,	27,	-1,	-1,	-1,	7,	-1,	38,	11,	-1,	49,	-1,	39,	42,	-1,	-1,	6,	-1,	-1,	-1,	-1,	-1,	-1,	-1,	-1,	-1,	19,	-1,	-1,	-1,	-1,	33,	48,	-1,	-1,	-1,	14,	61,	32,	-1,	29,	-1,	-1,	-1,	44,	52,	-1,	-1,	-1,	-1|
-1,	-1,	44,	-1,	-1,	-1,	-1,	-1,	-1,	34,	-1,	3,	39,	26,	-1,	38,	-1,	17,	-1,	-1,	-1,	55,	-1,	-1,	48,	-1,	18,	-1,	25,	58,	-1,	22,	-1,	-1,	50,	35,	36,	-1,	-1,	9,	-1,	15,	-1,	32,	-1,	-1,	42,	14,	31,	47,	41,	-1,	49,	-1,	-1,	33,	-1,	-1,	-1,	-1,	-1,	-1,	-1,	-1|
-1,	33,	-1,	-1,	-1,	-1,	-1,	-1,	18,	28,	29,	44,	-1,	-1,	42,	-1,	-1,	45,	-1,	-1,	-1,	5,	52,	49,	8,	63,	-1,	41,	-1,	-1,	38,	-1,	-1,	54,	6,	3,	-1,	-1,	-1,	-1,	46,	-1,	-1,	-1,	26,	-1,	-1,	-1,	50,	-1,	27,	10,	39,	-1,	20,	-1,	64,	-1,	-1,	-1,	-1,	57,	-1,	14|
-1,	39,	-1,	-1,	16,	-1,	-1,	-1,	60,	-1,	-1,	-1,	-1,	59,	24,	6,	-1,	44,	2,	-1,	-1,	-1,	-1,	-1,	-1,	-1,	52,	-1,	64,	-1,	-1,	-1,	-1,	-1,	29,	-1,	-1,	-1,	-1,	-1,	-1,	4,	13,	31,	-1,	36,	51,	41,	-1,	-1,	-1,	-1,	-1,	37,	-1,	8,	28,	-1,	9,	48,	-1,	-1,	5,	63|
57,	45,	-1,	18,	-1,	-1,	5,	43,	49,	38,	60,	-1,	48,	-1,	-1,	-1,	16,	-1,	-1,	-1,	-1,	-1,	-1,	51,	-1,	-1,	46,	28,	14,	-1,	23,	-1,	3,	53,	-1,	-1,	52,	50,	-1,	-1,	-1,	-1,	-1,	-1,	19,	-1,	32,	-1,	40,	-1,	25,	-1,	-1,	20,	-1,	-1,	-1,	-1,	-1,	-1,	-1,	-1,	-1,	-1|
-1,	-1,	-1,	52,	-1,	37,	-1,	-1,	12,	-1,	4,	15,	42,	22,	-1,	26,	11,	-1,	25,	-1,	45,	-1,	-1,	-1,	20,	31,	32,	-1,	34,	40,	35,	-1,	-1,	49,	-1,	39,	41,	-1,	-1,	1,	33,	-1,	-1,	-1,	55,	57,	-1,	-1,	-1,	-1,	-1,	30,	14,	54,	-1,	23,	29,	-1,	-1,	19,	59,	-1,	10,	-1|
-1,	-1,	35,	4,	48,	-1,	-1,	31,	-1,	61,	57,	17,	-1,	20,	-1,	-1,	-1,	-1,	59,	-1,	-1,	-1,	-1,	-1,	-1,	25,	33,	-1,	8,	-1,	5,	-1,	-1,	13,	9,	18,	11,	-1,	2,	22,	43,	-1,	-1,	-1,	-1,	54,	-1,	-1,	52,	-1,	-1,	32,	-1,	3,	-1,	-1,	7,	-1,	-1,	42,	-1,	15,	63,	1|
11,	15,	-1,	-1,	-1,	-1,	3,	1,	-1,	51,	-1,	-1,	-1,	-1,	-1,	30,	42,	14,	-1,	-1,	-1,	-1,	-1,	-1,	-1,	-1,	-1,	58,	-1,	-1,	24,	6,	-1,	47,	8,	-1,	-1,	-1,	-1,	-1,	-1,	31,	-1,	-1,	-1,	-1,	-1,	2,	-1,	-1,	17,	-1,	-1,	-1,	-1,	-1,	-1,	-1,	38,	-1,	5,	-1,	46,	-1|
-1,	13,	-1,	-1,	36,	-1,	-1,	-1,	23,	41,	5,	-1,	18,	-1,	40,	-1,	-1,	-1,	4,	-1,	48,	62,	-1,	6,	45,	-1,	-1,	-1,	-1,	-1,	19,	-1,	-1,	59,	-1,	-1,	-1,	21,	20,	-1,	56,	34,	-1,	-1,	-1,	-1,	-1,	-1,	11,	-1,	-1,	-1,	35,	-1,	24,	-1,	-1,	-1,	22,	-1,	32,	-1,	-1,	58|
-1,	-1,	-1,	-1,	50,	-1,	26,	-1,	-1,	-1,	-1,	-1,	11,	-1,	3,	-1,	-1,	-1,	-1,	-1,	-1,	-1,	-1,	-1,	12,	4,	59,	-1,	-1,	17,	-1,	-1,	44,	-1,	5,	57,	40,	56,	-1,	42,	-1,	-1,	-1,	-1,	48,	-1,	-1,	-1,	-1,	-1,	-1,	-1,	63,	-1,	-1,	-1,	13,	-1,	-1,	-1,	52,	21,	-1,	-1|
-1,	22,	-1,	20,	9,	-1,	-1,	-1,	-1,	62,	1,	59,	28,	-1,	-1,	-1,	-1,	-1,	3,	-1,	36,	-1,	35,	-1,	56,	48,	-1,	-1,	38,	-1,	-1,	-1,	-1,	-1,	-1,	58,	29,	55,	-1,	-1,	-1,	50,	-1,	-1,	-1,	-1,	5,	6,	-1,	21,	-1,	-1,	-1,	-1,	-1,	37,	60,	41,	-1,	54,	-1,	-1,	-1,	2|
-1,	-1,	59,	-1,	24,	-1,	41,	-1,	9,	-1,	-1,	-1,	-1,	-1,	-1,	2,	19,	-1,	-1,	52,	60,	17,	7,	26,	-1,	-1,	42,	-1,	-1,	29,	-1,	10,	-1,	-1,	-1,	-1,	-1,	-1,	-1,	-1,	-1,	-1,	-1,	-1,	-1,	-1,	40,	-1,	-1,	-1,	38,	-1,	-1,	-1,	43,	-1,	-1,	8,	20,	34,	4,	-1,	6,	-1|
-1,	-1,	-1,	-1,	-1,	5,	51,	-1,	-1,	-1,	-1,	-1,	59,	-1,	49,	-1,	-1,	11,	-1,	38,	-1,	25,	-1,	27,	-1,	-1,	57,	19,	-1,	20,	-1,	-1,	-1,	-1,	-1,	-1,	-1,	-1,	-1,	40,	-1,	-1,	34,	-1,	36,	58,	-1,	-1,	-1,	-1,	-1,	-1,	-1,	39,	21,	32,	-1,	2,	-1,	24,	62,	7,	-1,	22|
47,	-1,	-1,	-1,	-1,	16,	29,	-1,	-1,	-1,	-1,	-1,	-1,	-1,	-1,	-1,	-1,	-1,	-1,	-1,	-1,	-1,	28,	-1,	46,	-1,	61,	56,	31,	-1,	-1,	21,	-1,	-1,	-1,	-1,	-1,	-1,	49,	-1,	1,	2,	-1,	-1,	-1,	-1,	-1,	-1,	7,	54,	35,	-1,	-1,	-1,	-1,	-1,	-1,	-1,	-1,	45,	-1,	-1,	55,	-1|
60,	37,	-1,	40,	-1,	-1,	62,	-1,	5,	-1,	46,	-1,	-1,	30,	27,	23,	-1,	-1,	-1,	10,	17,	-1,	57,	-1,	55,	-1,	-1,	-1,	45,	-1,	4,	28,	-1,	51,	-1,	-1,	-1,	-1,	-1,	36,	16,	-1,	3,	-1,	39,	-1,	63,	15,	-1,	-1,	-1,	22,	38,	61,	-1,	49,	43,	42,	53,	-1,	34,	58,	59,	64|
59,	21,	-1,	-1,	-1,	-1,	55,	57,	-1,	22,	-1,	28,	14,	-1,	-1,	-1,	-1,	52,	34,	-1,	51,	58,	4,	-1,	-1,	6,	25,	-1,	-1,	54,	30,	-1,	38,	-1,	62,	-1,	15,	13,	-1,	-1,	44,	-1,	8,	37,	18,	-1,	31,	-1,	-1,	17,	-1,	-1,	-1,	16,	40,	-1,	56,	29,	-1,	-1,	-1,	-1,	-1,	12|
7,	-1,	-1,	35,	31,	-1,	34,	18,	-1,	-1,	9,	-1,	57,	47,	-1,	-1,	-1,	-1,	-1,	-1,	6,	-1,	-1,	-1,	-1,	-1,	-1,	38,	-1,	-1,	8,	58,	-1,	16,	28,	-1,	-1,	-1,	45,	-1,	-1,	-1,	-1,	59,	13,	-1,	-1,	46,	-1,	-1,	55,	-1,	-1,	-1,	53,	52,	-1,	-1,	-1,	11,	-1,	-1,	-1,	-1|
43,	24,	-1,	50,	-1,	-1,	-1,	-1,	19,	44,	-1,	-1,	-1,	-1,	-1,	-1,	-1,	-1,	30,	42,	3,	-1,	-1,	20,	-1,	-1,	-1,	-1,	29,	-1,	16,	-1,	-1,	-1,	46,	-1,	-1,	-1,	39,	-1,	55,	5,	-1,	56,	-1,	-1,	-1,	-1,	48,	-1,	18,	-1,	-1,	-1,	23,	-1,	-1,	63,	13,	8,	-1,	-1,	-1,	-1|
-1,	12,	-1,	-1,	41,	-1,	25,	-1,	55,	36,	2,	-1,	-1,	-1,	-1,	39,	-1,	-1,	-1,	-1,	-1,	43,	53,	-1,	59,	32,	-1,	-1,	-1,	42,	49,	24,	5,	-1,	58,	-1,	34,	48,	-1,	47,	62,	-1,	-1,	-1,	-1,	-1,	-1,	-1,	37,	-1,	-1,	-1,	-1,	-1,	-1,	-1,	-1,	-1,	-1,	31,	-1,	52,	-1,	-1|
54,	-1,	23,	-1,	-1,	-1,	-1,	44,	37,	-1,	-1,	-1,	3,	-1,	21,	-1,	-1,	63,	62,	-1,	-1,	-1,	-1,	-1,	52,	-1,	-1,	-1,	-1,	-1,	47,	-1,	-1,	-1,	-1,	-1,	-1,	-1,	-1,	-1,	-1,	45,	-1,	-1,	-1,	43,	20,	-1,	-1,	-1,	-1,	24,	-1,	-1,	-1,	-1,	25,	-1,	-1,	5,	-1,	-1,	-1,	16|
37,	-1,	-1,	-1,	-1,	50,	-1,	-1,	38,	33,	-1,	24,	-1,	-1,	-1,	-1,	-1,	-1,	-1,	-1,	-1,	49,	-1,	-1,	23,	20,	5,	-1,	-1,	-1,	-1,	61,	15,	-1,	-1,	2,	46,	-1,	16,	-1,	-1,	-1,	-1,	-1,	-1,	-1,	7,	47,	-1,	52,	-1,	-1,	17,	-1,	58,	3,	45,	-1,	-1,	-1,	-1,	25,	64,	10|
-1,	31,	13,	-1,	57,	41,	-1,	-1,	-1,	18,	-1,	40,	-1,	21,	10,	19,	17,	48,	9,	-1,	62,	34,	37,	-1,	-1,	-1,	-1,	-1,	-1,	45,	15,	-1,	11,	5,	-1,	36,	-1,	28,	-1,	26,	-1,	29,	1,	-1,	46,	3,	22,	-1,	35,	-1,	39,	50,	-1,	12,	-1,	61,	55,	-1,	-1,	-1,	14,	-1,	8,	33|
-1,	34,	-1,	-1,	-1,	54,	20,	3,	-1,	37,	-1,	5,	-1,	-1,	64,	-1,	-1,	-1,	23,	-1,	19,	-1,	-1,	-1,	25,	-1,	48,	-1,	47,	18,	-1,	-1,	-1,	62,	-1,	-1,	-1,	-1,	52,	38,	-1,	-1,	4,	13,	-1,	50,	27,	-1,	59,	26,	-1,	1,	21,	43,	-1,	-1,	-1,	53,	-1,	7,	-1,	-1,	-1,	-1|
-1,	-1,	-1,	-1,	-1,	-1,	-1,	14,	46,	26,	-1,	35,	-1,	-1,	-1,	-1,	61,	59,	-1,	64,	-1,	-1,	42,	13,	37,	-1,	53,	-1,	3,	-1,	-1,	-1,	54,	33,	-1,	44,	-1,	27,	-1,	34,	-1,	17,	-1,	52,	16,	21,	-1,	-1,	-1,	23,	-1,	18,	7,	-1,	2,	56,	-1,	-1,	-1,	-1,	-1,	31,	57,	19|
5,	-1,	18,	9,	-1,	-1,	30,	2,	13,	-1,	20,	-1,	49,	23,	14,	-1,	-1,	26,	8,	-1,	-1,	-1,	58,	-1,	-1,	-1,	-1,	44,	51,	57,	59,	-1,	31,	56,	-1,	-1,	55,	-1,	-1,	-1,	-1,	53,	37,	42,	43,	-1,	10,	-1,	28,	6,	-1,	33,	36,	-1,	46,	45,	-1,	3,	24,	35,	-1,	1,	-1,	52|
53,	-1,	27,	-1,	-1,	22,	8,	35,	3,	-1,	-1,	4,	-1,	-1,	-1,	12,	50,	7,	20,	-1,	-1,	29,	1,	21,	31,	-1,	-1,	-1,	-1,	-1,	26,	-1,	-1,	37,	17,	19,	-1,	-1,	60,	6,	28,	56,	-1,	-1,	25,	2,	-1,	-1,	-1,	-1,	-1,	-1,	-1,	-1,	14,	-1,	-1,	36,	-1,	13,	-1,	62,	-1,	-1|
-1,	-1,	-1,	-1,	-1,	52,	-1,	-1,	-1,	-1,	-1,	7,	-1,	60,	-1,	9,	5,	-1,	44,	-1,	-1,	-1,	-1,	31,	-1,	1,	43,	-1,	-1,	-1,	-1,	40,	-1,	42,	-1,	-1,	-1,	49,	-1,	-1,	58,	41,	-1,	14,	-1,	-1,	-1,	-1,	-1,	-1,	-1,	27,	54,	64,	62,	16,	63,	-1,	-1,	-1,	-1,	61,	28,	-1|
-1,	58,	45,	7,	51,	-1,	23,	48,	-1,	17,	11,	-1,	-1,	43,	-1,	57,	-1,	-1,	-1,	55,	52,	39,	-1,	-1,	-1,	33,	10,	64,	27,	-1,	-1,	46,	-1,	-1,	18,	21,	-1,	-1,	50,	20,	-1,	59,	-1,	-1,	35,	-1,	-1,	-1,	32,	22,	-1,	49,	-1,	-1,	-1,	13,	-1,	-1,	12,	-1,	-1,	42,	26,	-1|
-1,	-1,	21,	-1,	10,	-1,	-1,	-1,	15,	5,	16,	19,	-1,	-1,	-1,	-1,	28,	-1,	54,	-1,	56,	-1,	8,	55,	-1,	35,	-1,	-1,	-1,	-1,	-1,	-1,	-1,	-1,	1,	-1,	57,	60,	59,	-1,	41,	32,	23,	17,	-1,	53,	-1,	-1,	-1,	-1,	-1,	-1,	-1,	24,	61,	-1,	-1,	31,	42,	30,	-1,	-1,	-1,	34|
-1,	23,	-1,	-1,	55,	35,	-1,	20,	-1,	-1,	10,	-1,	47,	-1,	59,	28,	-1,	-1,	-1,	-1,	49,	-1,	-1,	-1,	38,	-1,	50,	-1,	56,	-1,	-1,	-1,	14,	-1,	2,	62,	-1,	-1,	-1,	17,	40,	44,	-1,	-1,	31,	-1,	-1,	34,	-1,	-1,	64,	43,	-1,	-1,	-1,	-1,	-1,	-1,	63,	-1,	-1,	37,	-1,	-1|
-1,	8,	-1,	-1,	-1,	-1,	48,	-1,	42,	-1,	-1,	-1,	-1,	-1,	-1,	-1,	-1,	43,	-1,	-1,	29,	-1,	60,	-1,	24,	34,	-1,	-1,	22,	-1,	21,	-1,	-1,	27,	64,	47,	10,	41,	-1,	-1,	-1,	-1,	-1,	-1,	-1,	11,	50,	-1,	-1,	30,	-1,	-1,	-1,	-1,	38,	-1,	5,	-1,	62,	-1,	-1,	-1,	-1,	-1|
-1,	-1,	9,	-1,	28,	19,	42,	-1,	48,	-1,	-1,	52,	-1,	-1,	-1,	44,	-1,	5,	38,	-1,	-1,	-1,	17,	-1,	-1,	43,	-1,	11,	-1,	32,	62,	-1,	-1,	-1,	-1,	50,	56,	-1,	-1,	29,	-1,	63,	14,	-1,	-1,	37,	46,	-1,	-1,	39,	31,	-1,	60,	-1,	-1,	-1,	23,	10,	-1,	-1,	-1,	-1,	54,	-1|
-1,	32,	-1,	39,	-1,	-1,	-1,	-1,	20,	-1,	35,	41,	-1,	-1,	63,	-1,	-1,	10,	24,	-1,	47,	-1,	34,	-1,	-1,	51,	17,	2,	19,	9,	-1,	42,	21,	-1,	13,	-1,	23,	-1,	54,	-1,	-1,	-1,	60,	-1,	8,	-1,	-1,	-1,	-1,	-1,	-1,	-1,	-1,	-1,	-1,	53,	26,	-1,	-1,	-1,	-1,	-1,	-1,	55|
46,	-1,	-1,	-1,	-1,	34,	-1,	-1,	-1,	-1,	-1,	60,	-1,	-1,	-1,	-1,	39,	-1,	16,	-1,	41,	-1,	-1,	-1,	61,	-1,	26,	-1,	-1,	-1,	28,	-1,	48,	7,	-1,	-1,	24,	-1,	-1,	-1,	21,	-1,	20,	18,	45,	-1,	-1,	-1,	29,	50,	-1,	-1,	-1,	25,	10,	51,	-1,	-1,	-1,	59,	-1,	-1,	-1,	47|
-1,	-1,	3,	-1,	5,	-1,	-1,	50,	-1,	6,	-1,	-1,	-1,	-1,	-1,	-1,	51,	-1,	-1,	62,	-1,	63,	-1,	-1,	-1,	41,	-1,	10,	-1,	59,	-1,	-1,	-1,	-1,	44,	-1,	28,	-1,	-1,	-1,	-1,	25,	22,	49,	24,	-1,	35,	-1,	34,	-1,	54,	-1,	-1,	-1,	-1,	-1,	-1,	60,	40,	57,	-1,	-1,	61,	-1|
-1,	11,	-1,	-1,	-1,	-1,	-1,	-1,	-1,	-1,	-1,	26,	34,	-1,	-1,	-1,	57,	20,	32,	14,	44,	7,	-1,	-1,	3,	54,	47,	-1,	18,	-1,	-1,	-1,	-1,	-1,	55,	-1,	-1,	-1,	33,	-1,	10,	-1,	15,	28,	-1,	29,	-1,	-1,	1,	-1,	16,	40,	-1,	-1,	-1,	-1,	-1,	-1,	-1,	41,	-1,	-1,	-1,	-1|
58,	-1,	52,	-1,	-1,	30,	54,	-1,	4,	-1,	-1,	-1,	-1,	37,	17,	-1,	36,	2,	51,	-1,	-1,	19,	-1,	34,	-1,	-1,	-1,	-1,	-1,	-1,	-1,	-1,	-1,	-1,	-1,	14,	-1,	-1,	-1,	27,	-1,	42,	44,	-1,	-1,	1,	-1,	39,	55,	-1,	47,	35,	45,	-1,	-1,	-1,	57,	-1,	-1,	50,	-1,	23,	11,	-1|
-1,	9,	-1,	61,	-1,	-1,	4,	12,	31,	2,	-1,	14,	-1,	-1,	-1,	55,	-1,	-1,	64,	59,	-1,	-1,	-1,	-1,	47,	-1,	-1,	8,	-1,	-1,	-1,	50,	36,	48,	-1,	-1,	-1,	15,	13,	35,	-1,	22,	-1,	46,	-1,	-1,	-1,	24,	-1,	29,	-1,	-1,	-1,	30,	-1,	10,	-1,	21,	-1,	-1,	-1,	-1,	-1,	-1|
6,	16,	-1,	-1,	14,	-1,	-1,	-1,	36,	-1,	32,	-1,	-1,	9,	-1,	-1,	18,	12,	43,	-1,	10,	-1,	-1,	-1,	44,	13,	-1,	-1,	21,	55,	34,	53,	46,	-1,	-1,	-1,	42,	11,	-1,	59,	54,	-1,	-1,	-1,	-1,	28,	-1,	62,	-1,	51,	52,	-1,	-1,	1,	25,	-1,	-1,	39,	-1,	40,	49,	-1,	60,	-1|
-1,	-1,	-1,	-1,	-1,	40,	60,	-1,	-1,	-1,	64,	-1,	-1,	-1,	-1,	-1,	-1,	-1,	6,	-1,	-1,	-1,	-1,	-1,	26,	-1,	36,	-1,	-1,	22,	17,	1,	-1,	-1,	3,	28,	18,	24,	-1,	-1,	-1,	-1,	-1,	55,	27,	-1,	19,	-1,	33,	-1,	15,	58,	-1,	56,	42,	-1,	-1,	-1,	-1,	-1,	-1,	5,	-1,	54|
-1,	-1,	-1,	-1,	39,	-1,	-1,	36,	-1,	42,	-1,	-1,	56,	-1,	12,	15,	55,	35,	60,	28,	-1,	1,	-1,	-1,	64,	-1,	-1,	-1,	-1,	-1,	-1,	18,	10,	29,	34,	8,	63,	4,	-1,	41,	-1,	-1,	21,	-1,	30,	-1,	-1,	-1,	2,	-1,	-1,	19,	-1,	-1,	-1,	50,	-1,	-1,	6,	46,	-1,	-1,	-1,	-1|
-1,	-1,	43,	-1,	7,	-1,	-1,	-1,	-1,	-1,	6,	57,	63,	44,	-1,	5,	53,	46,	40,	-1,	58,	-1,	-1,	-1,	30,	-1,	-1,	-1,	48,	-1,	-1,	-1,	-1,	21,	-1,	64,	20,	26,	55,	56,	50,	-1,	-1,	-1,	-1,	-1,	-1,	18,	8,	24,	3,	-1,	-1,	-1,	-1,	36,	10,	-1,	-1,	61,	-1,	38,	22,	-1|
63,	55,	46,	-1,	-1,	32,	18,	-1,	45,	60,	13,	49,	-1,	24,	-1,	-1,	26,	-1,	-1,	-1,	-1,	-1,	-1,	-1,	-1,	-1,	-1,	-1,	-1,	43,	10,	-1,	-1,	22,	-1,	-1,	-1,	31,	-1,	50,	-1,	-1,	29,	-1,	-1,	56,	59,	-1,	-1,	-1,	28,	-1,	-1,	-1,	-1,	-1,	-1,	12,	25,	2,	-1,	64,	36,	-1|
48,	49,	-1,	-1,	-1,	-1,	50,	-1,	33,	-1,	3,	-1,	1,	-1,	-1,	59,	56,	-1,	21,	-1,	-1,	-1,	-1,	37,	-1,	27,	60,	-1,	46,	31,	63,	19,	-1,	-1,	-1,	12,	-1,	62,	9,	-1,	35,	-1,	47,	-1,	-1,	-1,	-1,	-1,	14,	20,	-1,	-1,	-1,	22,	-1,	-1,	-1,	55,	-1,	26,	29,	-1,	-1,	-1|
-1,	4,	-1,	38,	-1,	-1,	-1,	-1,	-1,	-1,	-1,	-1,	-1,	-1,	60,	45,	-1,	28,	-1,	-1,	-1,	-1,	-1,	64,	-1,	18,	-1,	-1,	-1,	-1,	58,	-1,	57,	-1,	-1,	-1,	-1,	-1,	-1,	48,	-1,	-1,	30,	-1,	42,	-1,	34,	-1,	63,	53,	12,	62,	-1,	51,	7,	-1,	-1,	24,	5,	-1,	36,	-1,	52,	46|
15,	-1,	29,	-1,	1,	-1,	-1,	-1,	-1,	-1,	-1,	-1,	52,	5,	34,	-1,	-1,	-1,	-1,	-1,	61,	2,	-1,	7,	-1,	-1,	-1,	-1,	23,	-1,	-1,	31,	-1,	-1,	-1,	-1,	-1,	-1,	-1,	30,	-1,	11,	-1,	-1,	41,	18,	47,	56,	27,	35,	49,	-1,	8,	-1,	55,	-1,	-1,	-1,	-1,	-1,	-1,	60,	-1,	-1|
21,	-1,	-1,	-1,	2,	60,	-1,	55,	-1,	-1,	27,	37,	-1,	-1,	-1,	61,	-1,	-1,	11,	-1,	-1,	-1,	-1,	-1,	33,	26,	-1,	-1,	63,	30,	-1,	-1,	18,	-1,	54,	1,	-1,	-1,	17,	-1,	-1,	57,	-1,	40,	-1,	9,	-1,	29,	-1,	-1,	-1,	-1,	-1,	14,	64,	19,	-1,	-1,	-1,	-1,	-1,	48,	-1,	-1|
-1,	40,	-1,	-1,	13,	-1,	-1,	33,	16,	-1,	12,	46,	32,	-1,	-1,	-1,	-1,	19,	52,	30,	-1,	-1,	48,	-1,	-1,	-1,	-1,	-1,	6,	-1,	50,	-1,	-1,	58,	60,	-1,	64,	-1,	22,	44,	45,	-1,	-1,	-1,	-1,	39,	62,	61,	5,	-1,	-1,	15,	-1,	23,	-1,	17,	-1,	-1,	-1,	47,	21,	29,	3,	26|
61,	54,	5,	-1,	-1,	8,	-1,	-1,	-1,	-1,	62,	1,	-1,	-1,	4,	-1,	46,	-1,	17,	-1,	31,	36,	-1,	25,	29,	-1,	-1,	47,	-1,	-1,	-1,	64,	2,	-1,	42,	41,	-1,	-1,	40,	-1,	-1,	3,	-1,	-1,	63,	-1,	53,	16,	38,	-1,	48,	-1,	50,	59,	6,	-1,	-1,	-1,	-1,	-1,	-1,	-1,	12,	-1|
-1,	35,	-1,	22,	18,	-1,	-1,	-1,	-1,	3,	19,	-1,	-1,	-1,	-1,	-1,	-1,	16,	26,	-1,	33,	-1,	-1,	-1,	-1,	-1,	-1,	-1,	37,	53,	-1,	59,	-1,	31,	-1,	-1,	62,	-1,	-1,	-1,	-1,	14,	-1,	-1,	17,	7,	12,	5,	60,	-1,	-1,	20,	-1,	44,	45,	-1,	39,	-1,	8,	-1,	2,	-1,	34,	6|
-1,	57,	30,	-1,	62,	-1,	-1,	63,	-1,	-1,	33,	58,	23,	50,	-1,	18,	-1,	-1,	-1,	4,	-1,	-1,	3,	-1,	-1,	-1,	-1,	17,	-1,	10,	-1,	5,	-1,	-1,	21,	46,	49,	-1,	6,	-1,	2,	8,	38,	-1,	51,	-1,	-1,	-1,	47,	-1,	-1,	42,	-1,	-1,	54,	1,	-1,	35,	-1,	27,	-1,	-1,	-1,	-1|
-1,	-1,	-1,	6,	-1,	59,	7,	-1,	2,	35,	14,	-1,	-1,	-1,	48,	25,	-1,	24,	55,	-1,	-1,	-1,	-1,	18,	-1,	-1,	-1,	-1,	-1,	-1,	-1,	57,	26,	-1,	15,	11,	-1,	23,	10,	-1,	4,	-1,	-1,	-1,	64,	-1,	37,	-1,	-1,	-1,	-1,	-1,	-1,	-1,	-1,	-1,	-1,	16,	-1,	17,	-1,	-1,	-1,	-1|
-1,	-1,	-1,	48,	-1,	-1,	-1,	40,	-1,	-1,	-1,	-1,	4,	-1,	-1,	-1,	-1,	53,	-1,	21,	37,	-1,	-1,	23,	28,	-1,	-1,	-1,	26,	-1,	27,	-1,	-1,	17,	22,	49,	47,	-1,	-1,	-1,	-1,	-1,	16,	-1,	-1,	-1,	13,	-1,	41,	-1,	-1,	-1,	-1,	-1,	18,	14,	35,	19,	29,	-1,	-1,	-1,	58,	31|
39,	7,	8,	-1,	53,	-1,	-1,	-1,	40,	64,	28,	-1,	-1,	-1,	20,	-1,	33,	27,	-1,	-1,	35,	-1,	51,	-1,	-1,	23,	-1,	-1,	54,	-1,	41,	62,	42,	36,	-1,	-1,	-1,	-1,	29,	61,	-1,	-1,	12,	-1,	15,	-1,	18,	10,	24,	-1,	-1,	52,	-1,	-1,	13,	-1,	-1,	-1,	-1,	55,	60,	-1,	-1,	44|
-1,	-1,	-1,	-1,	-1,	57,	-1,	54,	-1,	52,	43,	-1,	-1,	-1,	-1,	-1,	32,	60,	-1,	16,	-1,	-1,	46,	-1,	-1,	-1,	1,	-1,	53,	15,	-1,	14,	-1,	-1,	-1,	-1,	-1,	-1,	-1,	31,	-1,	-1,	2,	-1,	50,	27,	-1,	-1,	19,	-1,	36,	-1,	62,	-1,	22,	-1,	-1,	-1,	-1,	64,	-1,	28,	-1,	-1|
23,	5,	-1,	-1,	-1,	-1,	-1,	-1,	-1,	-1,	-1,	-1,	-1,	38,	-1,	31,	-1,	-1,	39,	17,	2,	-1,	56,	10,	32,	30,	12,	-1,	-1,	-1,	-1,	43,	-1,	-1,	-1,	52,	-1,	-1,	-1,	-1,	37,	-1,	6,	-1,	-1,	59,	-1,	42,	-1,	-1,	58,	53,	-1,	-1,	50,	-1,	-1,	46,	-1,	21,	41,	-1,	-1,	-1|
-1,	60,	11,	-1,	17,	-1,	-1,	37,	14,	-1,	34,	8,	51,	-1,	-1,	21,	-1,	-1,	61,	-1,	64,	-1,	-1,	-1,	-1,	-1,	-1,	46,	-1,	-1,	-1,	-1,	40,	-1,	53,	-1,	-1,	-1,	-1,	16,	7,	-1,	-1,	35,	-1,	-1,	44,	33,	39,	55,	-1,	-1,	29,	-1,	30,	38,	47,	26,	-1,	-1,	-1,	59,	-1,	3|
-1,	-1,	-1,	25,	19,	-1,	33,	-1,	41,	-1,	-1,	-1,	60,	11,	-1,	53,	-1,	30,	-1,	3,	-1,	-1,	-1,	-1,	-1,	-1,	-1,	-1,	-1,	-1,	48,	13,	1,	-1,	-1,	-1,	-1,	46,	27,	-1,	-1,	-1,	-1,	-1,	49,	-1,	43,	8,	20,	-1,	7,	-1,	-1,	63,	37,	-1,	-1,	40,	-1,	56,	12,	-1,	-1,	23|
28,	41,	-1,	14,	-1,	2,	10,	26,	-1,	29,	-1,	-1,	27,	-1,	-1,	-1,	22,	47,	-1,	-1,	38,	-1,	25,	36,	-1,	-1,	-1,	-1,	17,	61,	-1,	-1,	30,	-1,	-1,	60,	-1,	-1,	-1,	45,	-1,	-1,	11,	9,	-1,	-1,	-1,	-1,	-1,	64,	46,	-1,	-1,	-1,	-1,	-1,	52,	5,	50,	-1,	-1,	-1,	37,	-1|
-1,	-1,	-1,	31,	-1,	-1,	59,	-1,	-1,	19,	-1,	-1,	33,	-1,	13,	35,	-1,	-1,	-1,	-1,	42,	-1,	55,	24,	-1,	-1,	8,	-1,	-1,	-1,	64,	-1,	-1,	28,	-1,	48,	6,	-1,	-1,	-1,	-1,	-1,	-1,	-1,	-1,	-1,	36,	-1,	-1,	45,	-1,	-1,	-1,	2,	-1,	-1,	16,	18,	-1,	-1,	-1,	11,	-1,	7|];
