sudoku-ls/benchmarks_LEQ/INST_64x64/40/inst64x64_40_96.txt
8
1
2	-1	-1	-1	-1	-1	-1	-1	-1	-1	-1	-1	-1	-1	-1	64	59	-1	-1	-1	14	-1	-1	39	62	-1	-1	-1	-1	-1	-1	-1	13	-1	-1	17	51	40	-1	60	38	-1	-1	3	-1	-1	-1	-1	15	-1	44	-1	30	-1	-1	57	-1	6	-1	22	42	-1	21	-1
35	52	38	-1	4	-1	11	-1	-1	8	15	22	-1	-1	31	-1	24	-1	47	-1	40	-1	-1	-1	34	-1	-1	-1	-1	19	-1	-1	-1	-1	-1	56	-1	-1	48	14	-1	7	-1	64	-1	-1	57	-1	-1	16	-1	-1	-1	53	-1	59	-1	25	-1	-1	-1	-1	17	-1
62	56	10	-1	-1	-1	-1	-1	-1	-1	58	32	-1	-1	-1	-1	60	-1	-1	-1	23	-1	27	43	-1	-1	-1	-1	-1	-1	-1	-1	52	-1	-1	-1	-1	33	-1	-1	-1	-1	59	-1	-1	63	45	-1	-1	-1	-1	-1	24	35	12	-1	-1	-1	19	15	-1	41	-1	-1
-1	3	50	-1	-1	46	-1	-1	-1	-1	61	47	-1	19	-1	33	21	6	-1	25	-1	18	-1	56	-1	-1	-1	-1	36	24	-1	15	-1	-1	-1	-1	7	-1	42	2	-1	-1	-1	-1	-1	-1	8	1	-1	-1	23	54	51	-1	-1	-1	-1	58	16	-1	-1	27	4	-1
-1	25	-1	-1	15	-1	-1	51	-1	-1	23	-1	-1	2	16	-1	-1	-1	1	-1	-1	-1	-1	-1	49	-1	39	-1	-1	-1	-1	56	-1	-1	-1	-1	-1	5	-1	58	19	-1	-1	-1	21	33	-1	37	-1	-1	14	-1	32	-1	29	-1	24	45	44	52	-1	-1	-1	-1
-1	61	-1	57	59	43	-1	29	-1	34	-1	-1	39	-1	-1	38	-1	-1	46	-1	-1	55	-1	53	-1	40	18	23	25	58	-1	-1	-1	-1	50	35	36	-1	24	9	-1	-1	-1	32	-1	-1	42	-1	31	-1	41	28	-1	-1	52	33	-1	-1	-1	51	30	-1	-1	8
-1	-1	-1	-1	-1	-1	-1	-1	-1	28	29	-1	7	12	-1	-1	-1	-1	-1	-1	30	5	52	-1	-1	-1	-1	-1	-1	-1	-1	-1	-1	-1	6	3	-1	-1	-1	-1	46	47	-1	-1	-1	-1	-1	-1	-1	19	-1	-1	-1	-1	20	-1	-1	-1	-1	-1	-1	-1	-1	14
20	-1	-1	54	-1	-1	-1	-1	60	-1	-1	-1	-1	59	-1	-1	-1	44	-1	-1	34	-1	-1	33	-1	-1	-1	-1	64	1	-1	-1	53	18	-1	26	-1	-1	-1	23	49	-1	13	-1	-1	-1	51	-1	58	-1	-1	-1	-1	-1	56	-1	-1	-1	-1	48	-1	10	5	-1
-1	45	-1	-1	-1	29	-1	-1	49	-1	-1	-1	-1	-1	35	-1	-1	37	12	-1	1	-1	13	-1	-1	47	-1	-1	14	7	-1	41	3	53	30	61	-1	50	-1	10	-1	-1	-1	-1	19	-1	-1	59	40	-1	25	-1	34	-1	-1	9	-1	-1	-1	-1	55	26	-1	-1
56	-1	28	-1	-1	-1	-1	-1	-1	-1	4	-1	42	-1	-1	-1	-1	38	25	44	45	53	18	-1	20	-1	-1	16	-1	-1	-1	63	-1	-1	48	-1	-1	17	-1	-1	-1	-1	-1	-1	55	-1	21	-1	-1	2	-1	-1	14	54	36	23	29	62	-1	-1	59	-1	-1	-1
-1	19	35	-1	48	38	21	-1	-1	61	57	-1	-1	-1	53	-1	49	-1	-1	-1	-1	-1	-1	-1	-1	-1	33	39	-1	-1	5	-1	60	-1	9	-1	11	-1	-1	22	-1	-1	45	-1	-1	54	14	-1	-1	41	-1	-1	46	-1	51	28	-1	27	-1	-1	-1	-1	63	-1
-1	-1	-1	-1	40	-1	-1	-1	44	-1	-1	-1	64	29	-1	-1	-1	14	-1	61	57	9	-1	22	18	-1	-1	-1	-1	-1	-1	-1	-1	-1	8	27	-1	34	-1	25	-1	-1	-1	41	-1	52	-1	-1	26	-1	-1	-1	19	-1	59	55	12	-1	-1	-1	5	-1	46	-1
30	13	-1	10	36	61	-1	-1	23	41	-1	-1	18	-1	40	-1	-1	64	4	-1	-1	62	15	6	-1	-1	-1	-1	2	-1	-1	-1	37	59	38	-1	54	-1	20	33	56	-1	63	60	47	-1	-1	51	-1	7	53	-1	-1	8	24	-1	-1	-1	22	-1	32	-1	25	58
-1	-1	-1	2	50	-1	-1	-1	32	-1	39	6	-1	10	-1	-1	23	-1	-1	-1	-1	46	47	-1	12	-1	-1	-1	61	-1	60	-1	-1	24	-1	57	40	-1	19	-1	-1	37	36	15	48	38	29	35	-1	-1	22	-1	-1	-1	31	18	-1	14	-1	49	-1	21	-1	-1
-1	-1	-1	-1	-1	-1	-1	-1	-1	62	1	59	-1	46	19	47	-1	-1	-1	-1	-1	31	35	30	56	-1	27	52	-1	64	11	-1	23	15	-1	-1	29	55	26	12	-1	50	-1	-1	-1	-1	-1	-1	-1	-1	-1	-1	13	33	44	-1	60	-1	45	-1	-1	40	24	-1
-1	46	59	-1	24	-1	-1	23	9	-1	-1	-1	-1	-1	-1	-1	19	33	-1	-1	-1	-1	7	26	22	53	-1	55	1	29	-1	10	35	32	-1	-1	-1	-1	51	-1	11	30	-1	-1	3	64	40	-1	-1	15	-1	-1	-1	-1	43	-1	48	-1	20	34	-1	18	6	57
-1	-1	4	8	-1	-1	-1	15	-1	-1	-1	-1	59	-1	-1	-1	37	-1	-1	38	55	25	61	-1	-1	-1	-1	-1	60	20	-1	-1	-1	-1	41	29	31	-1	-1	-1	-1	-1	34	47	-1	58	33	-1	46	63	-1	-1	-1	-1	21	-1	3	-1	-1	24	-1	7	-1	-1
-1	-1	32	-1	-1	16	-1	-1	-1	11	40	-1	38	-1	-1	-1	-1	13	-1	-1	-1	-1	28	41	-1	-1	-1	56	-1	27	-1	-1	-1	-1	-1	-1	-1	30	-1	-1	-1	2	-1	-1	6	-1	26	57	7	-1	-1	64	-1	50	-1	62	-1	15	-1	45	-1	17	-1	39
60	-1	48	-1	-1	-1	-1	-1	-1	12	-1	54	-1	-1	-1	23	7	-1	-1	10	17	-1	57	-1	55	-1	11	-1	45	-1	4	-1	19	-1	-1	-1	-1	2	-1	36	-1	52	3	-1	39	-1	-1	15	44	-1	1	-1	-1	-1	-1	-1	43	42	53	32	34	-1	-1	64
59	21	-1	36	3	-1	55	57	-1	-1	-1	-1	-1	-1	-1	48	-1	-1	-1	49	-1	58	-1	46	43	-1	-1	-1	-1	-1	-1	39	38	23	62	-1	-1	-1	11	63	44	9	8	37	-1	-1	-1	19	-1	-1	45	-1	-1	-1	-1	-1	56	29	-1	60	-1	20	27	-1
7	-1	-1	35	-1	-1	-1	18	-1	1	-1	-1	57	-1	-1	-1	2	32	22	40	6	15	24	-1	-1	17	23	-1	-1	-1	-1	58	27	16	-1	-1	3	-1	45	64	-1	54	50	59	13	4	-1	-1	43	-1	-1	5	-1	-1	53	52	41	-1	21	-1	61	-1	-1	-1
43	-1	-1	-1	-1	-1	-1	-1	-1	44	7	-1	45	-1	-1	60	-1	21	-1	-1	-1	-1	-1	20	2	15	22	1	29	62	16	36	-1	52	-1	-1	-1	-1	-1	-1	-1	5	-1	-1	32	-1	-1	27	-1	-1	-1	59	-1	-1	-1	-1	6	-1	13	-1	40	51	49	-1
-1	-1	56	-1	41	45	-1	-1	-1	36	2	18	26	-1	33	39	-1	-1	-1	-1	-1	-1	53	-1	-1	-1	-1	-1	-1	42	-1	-1	-1	-1	-1	-1	34	-1	-1	-1	-1	10	-1	-1	22	-1	-1	21	-1	-1	-1	-1	27	-1	3	-1	-1	30	28	-1	-1	52	9	-1
54	-1	-1	-1	-1	6	38	-1	-1	-1	56	42	3	31	-1	-1	14	-1	-1	-1	39	-1	-1	-1	-1	64	-1	-1	-1	-1	-1	12	-1	-1	57	-1	-1	9	61	32	-1	-1	-1	7	-1	43	20	49	36	-1	-1	-1	15	-1	-1	-1	25	-1	-1	-1	50	46	-1	-1
-1	-1	-1	55	29	50	1	-1	38	-1	-1	-1	-1	-1	-1	-1	12	36	35	54	-1	49	30	-1	-1	-1	5	-1	-1	-1	-1	61	-1	-1	-1	-1	-1	-1	16	13	8	-1	26	48	57	6	7	-1	-1	-1	-1	-1	17	-1	-1	3	-1	44	59	-1	-1	25	-1	10
-1	-1	13	-1	57	41	-1	-1	27	-1	52	-1	54	-1	-1	-1	-1	-1	-1	51	62	-1	-1	-1	-1	-1	56	6	7	45	15	4	-1	5	24	36	-1	-1	53	26	-1	-1	-1	23	-1	3	22	-1	-1	-1	39	50	-1	12	60	61	-1	38	-1	58	-1	16	-1	33
-1	34	-1	-1	49	54	-1	-1	58	-1	42	5	-1	-1	-1	-1	-1	-1	-1	-1	-1	-1	45	11	25	29	-1	-1	47	-1	-1	-1	-1	-1	51	-1	35	57	52	38	-1	-1	4	-1	-1	-1	27	36	59	-1	-1	1	21	-1	8	24	-1	-1	-1	7	22	39	-1	32
-1	-1	40	60	-1	-1	39	-1	-1	-1	-1	-1	-1	36	6	-1	-1	59	63	-1	43	-1	42	-1	37	-1	53	30	3	-1	-1	-1	-1	-1	-1	44	-1	27	1	-1	32	-1	9	-1	-1	-1	-1	-1	25	23	5	18	-1	38	-1	56	-1	47	-1	29	20	-1	57	-1
5	38	-1	-1	21	-1	-1	2	-1	-1	-1	-1	49	23	14	-1	41	-1	-1	60	27	-1	-1	-1	-1	62	-1	44	-1	57	-1	-1	-1	56	12	63	-1	22	-1	-1	-1	-1	-1	-1	-1	34	10	-1	28	-1	29	-1	-1	19	-1	-1	-1	3	-1	-1	48	1	50	52
-1	42	-1	-1	-1	-1	8	35	3	-1	30	-1	15	16	45	12	50	-1	20	33	-1	29	1	-1	-1	-1	-1	24	-1	-1	-1	-1	-1	37	17	-1	-1	-1	60	-1	-1	-1	-1	39	-1	-1	-1	-1	-1	40	57	-1	-1	9	14	-1	54	-1	43	13	11	-1	23	-1
-1	-1	6	-1	46	52	15	24	47	-1	51	-1	-1	60	8	-1	5	22	-1	-1	4	-1	10	-1	-1	-1	-1	-1	-1	-1	-1	40	29	42	39	23	59	-1	25	-1	58	41	33	-1	-1	19	55	-1	-1	34	20	27	-1	-1	-1	16	63	-1	17	-1	-1	-1	-1	21
-1	58	-1	-1	-1	-1	-1	-1	-1	-1	-1	-1	53	43	-1	57	-1	-1	-1	-1	-1	-1	38	-1	-1	-1	-1	64	27	-1	9	-1	-1	41	-1	-1	-1	-1	50	-1	24	-1	-1	-1	-1	44	-1	30	-1	-1	-1	49	-1	-1	-1	13	-1	-1	-1	4	-1	42	26	-1
26	-1	21	-1	-1	-1	-1	-1	-1	-1	-1	19	-1	-1	-1	-1	-1	18	54	11	56	3	-1	55	39	-1	29	-1	12	-1	-1	-1	25	-1	-1	-1	57	60	59	46	-1	-1	23	17	62	-1	2	-1	6	-1	-1	-1	20	24	61	-1	-1	31	42	-1	38	-1	48	34
-1	23	-1	-1	55	-1	57	20	39	-1	-1	13	47	1	-1	-1	6	9	-1	-1	49	48	-1	-1	38	46	-1	45	-1	8	33	60	14	-1	2	-1	-1	-1	-1	-1	40	-1	54	-1	31	-1	-1	34	-1	-1	-1	43	52	32	41	-1	-1	11	-1	36	24	-1	-1	-1
31	-1	15	-1	56	-1	-1	61	-1	-1	49	2	-1	-1	18	-1	35	-1	53	46	-1	52	60	59	-1	-1	-1	40	22	-1	21	-1	32	-1	64	-1	10	-1	-1	-1	36	1	-1	-1	-1	11	-1	-1	-1	30	19	-1	23	26	-1	44	-1	13	62	-1	-1	-1	-1	-1
-1	1	-1	24	28	-1	-1	59	-1	-1	8	52	-1	-1	-1	-1	58	-1	-1	45	-1	-1	-1	-1	53	-1	-1	11	30	-1	-1	-1	34	26	-1	-1	-1	20	18	29	47	-1	14	-1	33	37	46	7	-1	39	-1	36	-1	-1	-1	21	-1	-1	-1	-1	64	-1	-1	-1
-1	-1	-1	-1	-1	-1	22	-1	20	57	-1	41	-1	4	63	-1	30	-1	24	-1	-1	-1	-1	-1	58	-1	-1	2	-1	-1	-1	42	-1	11	13	-1	23	52	-1	-1	-1	-1	-1	27	-1	48	3	38	62	46	59	14	56	-1	-1	53	-1	-1	-1	-1	-1	45	-1	55
46	-1	-1	-1	-1	34	-1	6	-1	32	-1	60	12	33	-1	3	-1	1	-1	13	41	-1	-1	-1	61	44	-1	-1	15	-1	-1	-1	48	-1	-1	-1	24	-1	-1	49	-1	-1	-1	-1	-1	-1	-1	-1	29	50	11	17	55	-1	-1	51	-1	52	58	-1	-1	22	-1	-1
-1	47	-1	16	-1	-1	-1	50	7	6	-1	-1	29	-1	-1	-1	51	-1	-1	-1	-1	-1	-1	15	-1	-1	64	10	55	-1	1	-1	39	38	-1	-1	28	36	12	-1	9	-1	-1	-1	24	-1	-1	-1	-1	-1	-1	-1	18	-1	-1	-1	-1	-1	-1	-1	-1	-1	-1	-1
-1	11	60	-1	-1	-1	-1	-1	64	-1	-1	-1	34	-1	46	-1	-1	-1	-1	14	-1	-1	-1	50	-1	54	-1	-1	-1	-1	-1	-1	45	-1	-1	-1	-1	-1	33	-1	-1	61	-1	28	-1	-1	-1	-1	1	27	-1	-1	42	5	-1	-1	-1	-1	56	41	-1	12	43	-1
58	-1	-1	64	25	30	-1	-1	-1	-1	-1	-1	-1	37	-1	-1	36	2	-1	-1	8	-1	22	-1	41	-1	24	3	-1	-1	-1	7	-1	6	-1	-1	-1	61	-1	-1	-1	-1	-1	-1	-1	-1	9	39	-1	-1	47	35	45	18	16	-1	-1	28	32	-1	-1	23	11	62
-1	9	-1	61	42	-1	-1	12	31	-1	41	-1	62	-1	-1	-1	-1	57	-1	-1	32	23	49	-1	-1	28	-1	-1	11	33	25	-1	-1	-1	-1	-1	-1	-1	-1	35	-1	-1	-1	-1	34	-1	-1	-1	-1	-1	-1	-1	26	-1	39	-1	1	21	27	-1	43	3	18	-1
6	-1	-1	-1	-1	3	35	-1	-1	-1	-1	-1	8	-1	-1	-1	-1	12	43	50	-1	-1	-1	-1	-1	-1	-1	-1	-1	55	34	53	-1	2	-1	-1	-1	11	30	-1	-1	-1	-1	-1	-1	28	-1	-1	-1	-1	-1	-1	64	-1	25	27	31	-1	-1	-1	49	-1	-1	24
-1	-1	-1	21	11	-1	60	38	-1	50	64	-1	16	34	-1	43	-1	-1	6	41	7	-1	62	-1	-1	-1	-1	32	-1	22	-1	1	-1	-1	-1	-1	-1	-1	-1	-1	13	-1	25	-1	-1	-1	19	-1	-1	59	-1	58	-1	-1	-1	-1	-1	-1	-1	-1	-1	-1	-1	54
-1	-1	-1	-1	39	-1	-1	36	61	-1	-1	53	56	25	-1	15	55	-1	60	28	11	-1	-1	48	-1	-1	37	-1	-1	-1	-1	-1	10	-1	-1	8	63	-1	-1	-1	-1	-1	-1	-1	-1	-1	17	3	2	-1	62	-1	-1	-1	5	50	-1	51	-1	-1	13	-1	-1	-1
1	17	-1	-1	-1	-1	-1	62	-1	-1	-1	-1	-1	44	54	-1	-1	-1	-1	-1	58	-1	-1	-1	30	45	49	-1	-1	39	42	-1	-1	21	-1	64	20	-1	-1	56	50	-1	-1	-1	-1	-1	23	18	8	-1	-1	-1	-1	-1	-1	36	-1	-1	35	-1	19	-1	22	41
63	-1	-1	-1	8	-1	-1	-1	-1	-1	-1	49	-1	-1	-1	52	26	-1	-1	-1	15	-1	-1	-1	-1	-1	-1	61	-1	-1	10	-1	-1	-1	-1	-1	-1	-1	-1	-1	-1	58	-1	-1	-1	56	-1	4	21	44	28	-1	-1	-1	-1	41	-1	12	-1	2	-1	64	-1	-1
48	49	-1	5	-1	-1	50	-1	33	-1	-1	39	-1	18	-1	-1	56	-1	21	-1	13	-1	44	37	-1	-1	-1	-1	46	-1	-1	19	-1	40	-1	12	-1	62	9	57	-1	-1	-1	-1	-1	15	64	32	-1	-1	-1	-1	-1	-1	17	-1	-1	-1	52	26	-1	-1	45	42
3	-1	-1	38	-1	17	-1	-1	-1	31	-1	56	-1	40	-1	45	47	-1	-1	29	59	41	-1	64	-1	-1	13	-1	49	2	58	-1	57	-1	-1	-1	61	-1	-1	-1	-1	-1	-1	-1	-1	25	-1	-1	63	-1	12	62	-1	-1	-1	11	-1	-1	5	33	36	-1	-1	46
15	48	-1	-1	-1	-1	-1	-1	-1	53	54	64	-1	-1	-1	-1	-1	-1	-1	58	61	-1	-1	7	-1	24	-1	-1	-1	3	-1	31	63	25	-1	33	32	16	36	-1	-1	-1	-1	44	-1	18	-1	56	27	-1	49	-1	-1	21	55	39	-1	22	57	-1	-1	-1	51	-1
21	43	-1	51	-1	60	46	-1	6	47	-1	-1	-1	-1	-1	-1	10	49	11	-1	-1	42	-1	-1	33	-1	-1	-1	63	30	44	34	18	3	-1	1	-1	38	-1	-1	59	57	-1	40	28	-1	52	29	4	-1	56	-1	-1	-1	64	-1	50	-1	-1	-1	58	48	-1	45
34	-1	14	-1	13	-1	9	33	-1	63	12	46	32	7	28	-1	-1	-1	-1	-1	-1	-1	-1	8	27	-1	-1	-1	-1	-1	50	-1	-1	-1	60	4	-1	-1	-1	-1	-1	-1	-1	-1	-1	39	62	-1	-1	-1	-1	15	-1	-1	57	17	-1	49	-1	-1	-1	-1	3	26
-1	54	-1	-1	-1	-1	58	-1	-1	15	62	1	9	49	4	-1	-1	-1	17	35	31	-1	-1	-1	-1	39	14	47	-1	60	52	-1	-1	-1	42	-1	27	-1	-1	24	-1	-1	32	10	-1	-1	53	-1	-1	33	48	-1	50	59	6	43	-1	56	-1	23	-1	-1	-1	13
50	-1	64	22	-1	23	36	-1	29	-1	-1	-1	-1	-1	-1	-1	-1	-1	26	-1	-1	-1	63	-1	11	-1	-1	-1	37	53	61	59	56	-1	-1	-1	-1	-1	47	28	-1	14	-1	24	-1	-1	-1	-1	60	32	-1	20	-1	-1	-1	-1	-1	54	-1	10	-1	4	-1	6
16	-1	30	41	62	39	31	-1	-1	-1	-1	-1	-1	-1	26	-1	-1	56	-1	4	-1	-1	-1	44	7	19	-1	17	28	-1	-1	-1	-1	34	-1	-1	-1	-1	6	-1	2	8	38	-1	51	-1	-1	48	-1	61	24	42	40	-1	54	1	59	-1	-1	-1	25	-1	15	43
52	-1	-1	-1	45	59	7	-1	-1	-1	14	-1	-1	-1	-1	-1	43	24	55	-1	-1	-1	39	-1	-1	-1	-1	21	62	12	56	57	-1	9	-1	-1	5	-1	10	19	-1	-1	58	-1	64	-1	-1	50	22	28	13	31	-1	-1	34	-1	61	-1	-1	17	1	-1	-1	-1
24	-1	-1	-1	-1	-1	-1	-1	-1	46	-1	-1	-1	-1	-1	42	-1	53	7	21	37	50	-1	23	-1	-1	2	-1	-1	-1	-1	-1	-1	-1	-1	-1	-1	8	-1	-1	-1	-1	-1	-1	-1	-1	13	-1	-1	-1	-1	51	-1	-1	-1	-1	-1	-1	29	-1	-1	6	-1	-1
-1	7	8	-1	53	-1	-1	-1	-1	-1	28	-1	-1	-1	20	-1	-1	27	-1	-1	-1	45	51	19	9	-1	63	37	54	25	41	-1	42	-1	-1	34	-1	-1	29	61	-1	-1	12	-1	-1	-1	18	-1	24	11	-1	-1	-1	17	-1	-1	-1	57	14	-1	-1	30	-1	44
45	-1	-1	-1	-1	-1	-1	-1	10	-1	43	55	58	39	47	-1	-1	60	5	-1	-1	-1	-1	-1	42	7	-1	59	53	-1	-1	-1	-1	20	-1	38	-1	-1	23	-1	30	-1	2	34	50	-1	-1	26	-1	25	-1	8	62	6	-1	-1	4	48	-1	64	-1	-1	-1	-1
-1	-1	-1	29	-1	-1	-1	16	26	-1	-1	9	25	38	-1	31	-1	-1	-1	17	-1	-1	-1	-1	32	30	-1	-1	-1	35	-1	-1	7	-1	-1	-1	13	-1	14	-1	-1	-1	6	-1	54	-1	28	42	-1	49	-1	-1	-1	-1	50	-1	-1	-1	-1	-1	-1	-1	-1	-1
-1	-1	-1	12	-1	-1	27	-1	-1	56	-1	8	-1	-1	2	-1	-1	-1	-1	18	64	28	-1	-1	-1	22	-1	46	58	6	-1	-1	-1	-1	-1	-1	-1	54	62	16	-1	-1	-1	-1	1	-1	44	33	-1	-1	-1	-1	-1	15	30	-1	-1	-1	-1	63	10	-1	-1	-1
64	6	-1	25	-1	-1	33	32	-1	-1	-1	-1	60	-1	-1	53	34	30	-1	-1	-1	-1	-1	29	-1	16	-1	-1	50	-1	-1	-1	-1	35	-1	51	2	46	27	-1	-1	-1	62	45	-1	-1	-1	8	-1	-1	-1	-1	-1	-1	37	26	22	-1	39	-1	12	-1	-1	-1
-1	41	-1	-1	34	-1	-1	26	24	-1	-1	-1	-1	6	-1	62	22	-1	13	-1	-1	-1	-1	-1	-1	-1	-1	31	17	61	57	55	-1	19	-1	-1	-1	-1	21	45	-1	-1	-1	9	-1	-1	-1	53	16	-1	46	-1	-1	42	-1	-1	-1	-1	50	1	-1	49	-1	-1
-1	50	-1	31	-1	15	-1	30	22	19	-1	-1	33	-1	13	35	-1	58	-1	-1	-1	-1	55	-1	-1	10	-1	-1	-1	-1	-1	44	41	-1	-1	-1	6	12	3	-1	-1	-1	-1	-1	-1	-1	-1	-1	-1	-1	21	34	-1	-1	27	54	16	18	-1	-1	53	-1	62	-1
64 
59 27 2 38
58 57 12 48
15 19 11 54
22 37 24 58
61 25 23 33
12 32 6 7
49 55 5 20
37 45 51 40
54 20 27 36
50 8 30 38
28 48 63 43
28 5 45 15
40 48 41 8
47 45 49 35
56 35 63 64
16 37 47 23
39 7 28 42
47 7 2 49
51 56 57 58
19 5 57 44
26 14 2 26
25 11 9 46
48 5 64 12
35 25 18 46
61 36 64 48
30 31 28 10
47 20 54 22
37 55 5 43
26 42 2 41
39 12 21 47
58 53 51 63
10 27 39 62
20 29 29 52
37 23 3 51
8 13 39 47
48 42 3 64
42 52 53 59
54 15 52 17
12 60 63 42
46 19 24 45
7 28 35 38
43 37 54 26
62 47 38 48
41 43 57 17
29 56 64 50
45 60 30 21
22 22 47 4
5 47 6 25
4 10 57 36
31 25 17 33
37 26 3 18
18 15 16 20
20 6 29 42
56 21 37 39
4 1 24 36
27 20 12 19
60 34 45 53
25 55 42 14
23 25 18 36
56 22 7 8
16 49 61 19
36 31 21 15
56 62 14 53
30 33 31 54
